;symbolic execution tree
(push)
(assert (le x0 weka.core.Range))
(check-sat)
(push)
(assert (le x0 weka.core.Range))
(check-sat)
(push)
(assert (le x0 weka.core.Range))
(check-sat)
(push)
(assert (le x1 java.lang.String))
(check-sat)
(pop)
(push)
(assert (not (le x1 java.lang.String)))
(check-sat)
(pop)
(push)
(assert (le x1 java.util.Vector))
(check-sat)
(push)
(assert (le x0 weka.core.Range))
(check-sat)
(push)
(assert (le x0 weka.core.Range))
(check-sat)
(push)
(assert (le x0 weka.core.Range))
(check-sat)
(pop)
(push)
(assert (not (le x0 weka.core.Range)))
(check-sat)
(pop)
(pop)
(push)
(assert (not (le x0 weka.core.Range)))
(check-sat)
(pop)
(pop)
(push)
(assert (not (le x0 weka.core.Range)))
(check-sat)
(pop)
(push)
(assert (le x0 weka.core.Range))
(check-sat)
(push)
(assert (le x1 java.util.Vector))
(check-sat)
(push)
(assert (le x0 weka.core.Range))
(check-sat)
(pop)
(push)
(assert (not (le x0 weka.core.Range)))
(check-sat)
(pop)
(push)
(assert (le x1 java.util.Vector))
(check-sat)
(push)
(assert (le x0 weka.core.Range))
(check-sat)
(pop)
(push)
(assert (not (le x0 weka.core.Range)))
(check-sat)
(pop)
(pop)
(push)
(assert (not (le x1 java.util.Vector)))
(check-sat)
(pop)
(push)
(assert (le x1 java.util.Vector))
(check-sat)
(pop)
(push)
(assert (not (le x1 java.util.Vector)))
(check-sat)
(pop)
(pop)
(push)
(assert (not (le x1 java.util.Vector)))
(check-sat)
(pop)
(push)
(assert (le x1 java.util.Vector))
(check-sat)
(push)
(assert (le x0 weka.core.Range))
(check-sat)
(pop)
(push)
(assert (not (le x0 weka.core.Range)))
(check-sat)
(pop)
(pop)
(push)
(assert (not (le x1 java.util.Vector)))
(check-sat)
(pop)
(push)
(assert (le x0 weka.core.Range))
(check-sat)
(pop)
(push)
(assert (not (le x0 weka.core.Range)))
(check-sat)
(pop)
(pop)
(push)
(assert (not (le x0 weka.core.Range)))
(check-sat)
(pop)
(push)
(assert (le x1 java.util.Vector))
(check-sat)
(push)
(assert (le x1 java.util.Vector))
(check-sat)
(pop)
(push)
(assert (not (le x1 java.util.Vector)))
(check-sat)
(pop)
(push)
(assert (le x1 java.util.Vector))
(check-sat)
(pop)
(push)
(assert (not (le x1 java.util.Vector)))
(check-sat)
(pop)
(pop)
(push)
(assert (not (le x1 java.util.Vector)))
(check-sat)
(pop)
(push)
(assert (le x0 weka.core.Range))
(check-sat)
(push)
(assert (le x1 java.util.Vector))
(check-sat)
(pop)
(push)
(assert (not (le x1 java.util.Vector)))
(check-sat)
(pop)
(push)
(assert (le x1 java.util.Vector))
(check-sat)
(pop)
(push)
(assert (not (le x1 java.util.Vector)))
(check-sat)
(pop)
(pop)
(push)
(assert (not (le x0 weka.core.Range)))
(check-sat)
(pop)
(push)
(assert (le x0 weka.core.Range))
(check-sat)
(push)
(assert (le x1 java.util.Vector))
(check-sat)
(push)
(assert (le x0 weka.core.Range))
(check-sat)
(pop)
(push)
(assert (not (le x0 weka.core.Range)))
(check-sat)
(pop)
(push)
(assert (le x0 weka.core.Range))
(check-sat)
(pop)
(push)
(assert (not (le x0 weka.core.Range)))
(check-sat)
(pop)
(pop)
(push)
(assert (not (le x1 java.util.Vector)))
(check-sat)
(pop)
(pop)
(push)
(assert (not (le x0 weka.core.Range)))
(check-sat)
(pop)
(pop)
(push)
(assert (not (le x1 java.util.Vector)))
(check-sat)
(pop)
(push)
(assert (le x1 weka.core.Instance))
(check-sat)
(push)
(assert (le x1 weka.core.Instance))
(check-sat)
(pop)
(push)
(assert (not (le x1 weka.core.Instance)))
(check-sat)
(pop)
(push)
(assert (le x0 weka.core.Range))
(check-sat)
(push)
(assert (le x0 weka.core.Range))
(check-sat)
(push)
(assert (le x0 weka.core.Range))
(check-sat)
(pop)
(push)
(assert (not (le x0 weka.core.Range)))
(check-sat)
(pop)
(push)
(assert (le x1 weka.core.Instance))
(check-sat)
(pop)
(push)
(assert (not (le x1 weka.core.Instance)))
(check-sat)
(pop)
(pop)
(push)
(assert (not (le x0 weka.core.Range)))
(check-sat)
(pop)
(push)
(assert (le x1 weka.core.Instance))
(check-sat)
(push)
(assert (le x1 weka.core.Instance))
(check-sat)
(pop)
(push)
(assert (not (le x1 weka.core.Instance)))
(check-sat)
(pop)
(pop)
(push)
(assert (not (le x1 weka.core.Instance)))
(check-sat)
(pop)
(pop)
(push)
(assert (not (le x0 weka.core.Range)))
(check-sat)
(pop)
(pop)
(push)
(assert (not (le x1 weka.core.Instance)))
(check-sat)
(push)
(assert (le x0 weka.core.Range))
(check-sat)
(push)
(assert (le x0 weka.core.Range))
(check-sat)
(push)
(assert (le x1 weka.core.Instance))
(check-sat)
(pop)
(push)
(assert (not (le x1 weka.core.Instance)))
(check-sat)
(push)
(assert (le x0 weka.core.Range))
(check-sat)
(pop)
(push)
(assert (not (le x0 weka.core.Range)))
(check-sat)
(pop)
(pop)
(pop)
(push)
(assert (not (le x0 weka.core.Range)))
(check-sat)
(pop)
(push)
(assert (le x1 weka.core.SparseInstance))
(check-sat)
(pop)
(push)
(assert (le x1 weka.core.Instance))
(check-sat)
(push)
(assert (not (le x1 weka.core.SparseInstance)))
(check-sat)
(pop)
(pop)
(pop)
(push)
(assert (not (le x0 weka.core.Range)))
(check-sat)
(pop)
(push)
(assert (le x1 weka.core.SparseInstance))
(check-sat)
(pop)
(push)
(assert (le x1 weka.core.Instance))
(check-sat)
(push)
(assert (not (le x1 weka.core.SparseInstance)))
(check-sat)
(pop)
(pop)
(pop)
(push)
(assert (le x1 weka.core.Instances))
(check-sat)
(push)
(assert (le x1 weka.core.Instances))
(check-sat)
(push)
(assert (le x1 weka.core.Instances))
(check-sat)
(push)
(assert (le x1 weka.core.Instances))
(check-sat)
(pop)
(push)
(assert (not (le x1 weka.core.Instances)))
(check-sat)
(pop)
(pop)
(push)
(assert (not (le x1 weka.core.Instances)))
(check-sat)
(pop)
(pop)
(push)
(assert (not (le x1 weka.core.Instances)))
(check-sat)
(pop)
(push)
(assert (le x1 weka.core.Instances))
(check-sat)
(pop)
(push)
(assert (not (le x1 weka.core.Instances)))
(check-sat)
(pop)
(push)
(assert (le x1 weka.core.Instances))
(check-sat)
(pop)
(push)
(assert (not (le x1 weka.core.Instances)))
(check-sat)
(pop)
(pop)
(push)
(assert (not (le x1 weka.core.Instances)))
(check-sat)
(pop)
(push)
(assert (le x1 java.util.Vector))
(check-sat)
(push)
(assert (le x1 java.util.Vector))
(check-sat)
(pop)
(push)
(assert (not (le x1 java.util.Vector)))
(check-sat)
(pop)
(pop)
(push)
(assert (not (le x1 java.util.Vector)))
(check-sat)
(push)
(assert (le x1 java.util.Vector))
(check-sat)
(pop)
(push)
(assert (not (le x1 java.util.Vector)))
(check-sat)
(pop)
(push)
(assert (le x1 java.util.Vector))
(check-sat)
(pop)
(push)
(assert (not (le x1 java.util.Vector)))
(check-sat)
(push)
(assert (le x1 java.util.Vector))
(check-sat)
(pop)
(push)
(assert (not (le x1 java.util.Vector)))
(check-sat)
(pop)
(pop)
(pop)
(pop)
(push)
(assert (not (le x0 weka.core.Range)))
(check-sat)
(pop)
(push)
(assert (le x0 weka.core.Range))
(check-sat)
(push)
(assert (le x0 weka.core.Range))
(check-sat)
(pop)
(push)
(assert (not (le x0 weka.core.Range)))
(check-sat)
(pop)
(push)
(assert (le x1 java.util.Vector))
(check-sat)
(push)
(assert (le x1 java.util.Vector))
(check-sat)
(pop)
(push)
(assert (not (le x1 java.util.Vector)))
(check-sat)
(pop)
(pop)
(push)
(assert (not (le x1 java.util.Vector)))
(check-sat)
(pop)
(push)
(assert (le x1 java.lang.String))
(check-sat)
(push)
(assert (le x0 weka.core.Range))
(check-sat)
(pop)
(push)
(assert (not (le x0 weka.core.Range)))
(check-sat)
(pop)
(pop)
(push)
(assert (not (le x1 java.lang.String)))
(check-sat)
(pop)
(push)
(assert (le x1 java.lang.String))
(check-sat)
(push)
(assert (le x1 java.lang.String))
(check-sat)
(push)
(assert (le x0 weka.core.Range))
(check-sat)
(pop)
(push)
(assert (not (le x0 weka.core.Range)))
(check-sat)
(pop)
(pop)
(push)
(assert (not (le x1 java.lang.String)))
(check-sat)
(pop)
(push)
(assert (le x0 weka.core.Range))
(check-sat)
(push)
(assert (le x1 java.lang.String))
(check-sat)
(push)
(assert (le x0 weka.core.Range))
(check-sat)
(pop)
(push)
(assert (not (le x0 weka.core.Range)))
(check-sat)
(pop)
(pop)
(push)
(assert (not (le x1 java.lang.String)))
(check-sat)
(pop)
(pop)
(push)
(assert (not (le x0 weka.core.Range)))
(check-sat)
(pop)
(pop)
(push)
(assert (not (le x1 java.lang.String)))
(check-sat)
(pop)
(push)
(assert (le x1 java.lang.StringBuilder))
(check-sat)
(push)
(assert (le x0 weka.core.Range))
(check-sat)
(push)
(assert (le x1 java.lang.StringBuilder))
(check-sat)
(pop)
(push)
(assert (not (le x1 java.lang.StringBuilder)))
(check-sat)
(pop)
(pop)
(push)
(assert (not (le x0 weka.core.Range)))
(check-sat)
(pop)
(pop)
(push)
(assert (not (le x1 java.lang.StringBuilder)))
(check-sat)
(pop)
(push)
(assert (le x1 java.util.Vector))
(check-sat)
(pop)
(push)
(assert (not (le x1 java.util.Vector)))
(check-sat)
(pop)
(push)
(assert (le x1 weka.core.Instance))
(check-sat)
(pop)
(push)
(assert (not (le x1 weka.core.Instance)))
(check-sat)
(push)
(assert (le x0 weka.core.Range))
(check-sat)
(push)
(assert (le x0 weka.core.Range))
(check-sat)
(pop)
(push)
(assert (not (le x0 weka.core.Range)))
(check-sat)
(pop)
(pop)
(push)
(assert (not (le x0 weka.core.Range)))
(check-sat)
(pop)
(push)
(assert (le x0 weka.core.Range))
(check-sat)
(pop)
(push)
(assert (not (le x0 weka.core.Range)))
(check-sat)
(pop)
(push)
(assert (le x0 weka.core.Range))
(check-sat)
(push)
(assert (le x0 weka.core.Range))
(check-sat)
(push)
(assert (le x0 weka.core.Range))
(check-sat)
(pop)
(push)
(assert (not (le x0 weka.core.Range)))
(check-sat)
(pop)
(pop)
(push)
(assert (not (le x0 weka.core.Range)))
(check-sat)
(pop)
(pop)
(push)
(assert (not (le x0 weka.core.Range)))
(check-sat)
(pop)
(push)
(assert (le x0 weka.core.Range))
(check-sat)
(push)
(assert (le x0 weka.core.Range))
(check-sat)
(pop)
(push)
(assert (not (le x0 weka.core.Range)))
(check-sat)
(pop)
(pop)
(push)
(assert (not (le x0 weka.core.Range)))
(check-sat)
(pop)
(pop)
(pop)
(push)
(assert (not (le x0 weka.core.Range)))
(check-sat)
(pop)
(pop)
(push)
(assert (not (le x0 weka.core.Range)))
(check-sat)
(pop)
(pop)
(push)
(assert (not (le x0 weka.core.Range)))
(check-sat)
(pop)
